(assert (forall ((q42 Real) (q43 Real) (q44 Real) (q45 Real) (q46 Real) (q47 Bool)) (=> (= 738.0 (+ q46 q45 q44) 0.3970642) q47)))
(assert (forall ((q48 Real) (q49 Real) (q50 Real) (q51 Bool)) true))
(check-sat)
